
Gurobi 11.0.3 (linux64) logging started Thu Apr 16 09:55:00 2026

Set parameter LogFile to value "tree/results/blsc/blsc_depth-4_run-1/Full MIP/LogFile_FullModel.txt"
Gurobi Optimizer version 11.0.3 build v11.0.3rc0 (linux64 - "CentOS Linux 7 (Core)")

CPU model: Intel(R) Xeon(R) Platinum 8260 CPU @ 2.40GHz, instruction set [SSE2|AVX|AVX2|AVX512]
Thread count: 96 physical cores, 192 logical processors, using up to 32 threads

Optimize a model with 97610 rows, 60136 columns and 573167 nonzeros
Model fingerprint: 0xe0cc38cf
Model has 7488 general constraints
Variable types: 37624 continuous, 22512 integer (22512 binary)
Coefficient statistics:
  Matrix range     [2e-03, 1e+04]
  Objective range  [2e-03, 1e+04]
  Bounds range     [1e+00, 5e+02]
  RHS range        [1e-04, 5e+02]

User MIP start produced solution with objective -11399.2 (0.21s)
Loaded user MIP start with objective -11399.2

Presolve added 7472 rows and 29952 columns
Presolve time: 0.94s
Presolved: 105082 rows, 90088 columns, 633128 nonzeros
Presolved model has 29952 SOS constraint(s)
Variable types: 37624 continuous, 52464 integer (52464 binary)

Deterministic concurrent LP optimizer: primal simplex, dual simplex, and barrier
Showing barrier log only...

Root relaxation presolved: 105082 rows, 90088 columns, 633128 nonzeros

Root barrier log...

Ordering time: 0.03s

Barrier statistics:
 Dense cols : 75
 AA' NZ     : 6.659e+05
 Factor NZ  : 2.309e+06 (roughly 100 MB of memory)
 Factor Ops : 5.485e+07 (less than 1 second per iteration)
 Threads    : 30

                  Objective                Residual
Iter       Primal          Dual         Primal    Dual     Compl     Time
   0  -8.23776712e+04  7.20798677e+08  4.00e+03 0.00e+00  7.72e+05     3s
   1  -2.76896211e+04  1.17921048e+09  1.07e+03 1.91e+01  1.81e+05     3s
   2  -8.36701751e+03  1.12937126e+09  1.06e+02 2.14e+00  2.18e+04     3s
   3  -6.03682554e+03  5.65950078e+08  1.05e+01 2.14e-01  3.79e+03     3s
   4  -2.47066783e+03  9.31703167e+07  1.04e+00 2.76e-02  5.11e+02     3s
   5  -2.57923121e+02  1.13536185e+07  1.03e-01 2.69e-03  5.84e+01     4s
   6  -2.48903871e+01  1.15437948e+06  1.05e-02 2.70e-04  5.84e+00     4s
   7  -1.58791038e+00  1.19040165e+05  1.14e-03 2.76e-05  6.01e-01     4s
   8   7.42908541e-01  1.47361543e+04  2.48e-04 3.41e-06  7.44e-02     4s
   9   9.56078052e-01  1.48812276e+03  2.46e-05 3.41e-07  7.51e-03     4s
  10   9.95607689e-01  1.49716542e+02  2.45e-06 3.42e-08  7.51e-04     4s
  11   9.99560706e-01  1.60066538e+01  2.43e-07 3.42e-09  7.57e-05     4s
  12   9.99956067e-01  2.51428771e+00  2.41e-08 3.42e-10  7.64e-06     4s
  13   9.99995606e-01  1.15280335e+00  2.39e-09 3.42e-11  7.70e-07     5s
  14   9.99999561e-01  1.01528034e+00  2.39e-10 3.42e-12  7.70e-08     5s
  15   9.99999956e-01  1.00152803e+00  2.39e-11 3.42e-13  7.70e-09     5s
  16   9.99999996e-01  1.00015281e+00  2.49e-12 3.43e-14  7.70e-10     5s
  17   1.00000000e+00  1.00001528e+00  5.54e-13 1.42e-14  7.70e-11     5s
  18   1.00000000e+00  1.00000153e+00  4.12e-13 3.43e-16  7.70e-12     6s
  19   1.00000000e+00  1.00000015e+00  4.12e-13 3.43e-17  7.70e-13     6s
  20   1.00000000e+00  1.00000002e+00  4.26e-13 6.94e-18  7.70e-14     6s

Barrier solved model in 20 iterations and 5.81 seconds (3.49 work units)
Optimal objective 1.00000000e+00


Root crossover log...

    4512 DPushes remaining with DInf 0.0000000e+00                 6s
       0 DPushes remaining with DInf 0.0000000e+00                 6s

   35576 PPushes remaining with PInf 0.0000000e+00                 6s
       0 PPushes remaining with PInf 0.0000000e+00                 6s

  Push phase complete: Pinf 0.0000000e+00, Dinf 0.0000000e+00      6s


Root simplex log...

Iteration    Objective       Primal Inf.    Dual Inf.      Time
   35580    1.0000000e+00   0.000000e+00   0.000000e+00      7s
   35580    1.0000000e+00   0.000000e+00   0.000000e+00      7s
Concurrent spin time: 0.03s

Solved with barrier

Root relaxation: objective 1.000000e+00, 35580 iterations, 5.03 seconds (2.75 work units)
Total elapsed time = 19.84s (DegenMoves)
Total elapsed time = 20.04s (DegenMoves)

    Nodes    |    Current Node    |     Objective Bounds      |     Work
 Expl Unexpl |  Obj  Depth IntInf | Incumbent    BestBd   Gap | It/Node Time

     0     0    1.00000    0 7520 -11399.160    1.00000   100%     -   20s
H    0     0                       0.8354701    1.00000  19.7%     - 1013s
     0     2    1.00000    0 6346    0.83547    1.00000  19.7%     - 1053s
     3     8    1.00000    2 6352    0.83547    1.00000  19.7%  6405 1280s
     7    16    1.00000    3 6350    0.83547    1.00000  19.7%  2746 1307s
H   31    64                       0.8376068    1.00000  19.4%   621 1366s
    63    96    1.00000    6 6346    0.83761    1.00000  19.4%   307 1632s
    95   128    1.00000    7 6346    0.83761    1.00000  19.4%   204 2427s
   127   160    1.00000    8 6348    0.83761    1.00000  19.4%   154 3600s

Explored 159 nodes (65889 simplex iterations) in 3600.58 seconds (3052.08 work units)
Thread count was 32 (of 192 available processors)

Solution count 3: 0.837607 0.83547 -11399.2 

Time limit reached
Best objective 8.376068376073e-01, best bound 1.000000000000e+00, gap 19.3878%

User-callback calls 2152196, time in user-callback 10.79 sec
